(set-info :smt-lib-version 2.6)
(set-logic QF_S)
(set-info :source |
Generated by: Hung-En Wang, Tzung-Lin Tsai, Chun-Han Lin, Fang Yu, and Jie-Hong R. Jiang
Generated on: 2019-02-28
Generator: Stranger
Application: Security analysis of string manipulating web applications
Target solver: CVC4, Norn, Z3-str2
Publication:
Hung-En Wang, Tzung-Lin Tsai, Chun-Han Lin, Fang Yu, Jie-Hong R. Jiang:
String Analysis via Automata Manipulation with Logic Circuit Representation. CAV (1) 2016: 241-260.
|)
(set-info :license "https://creativecommons.org/licenses/by/4.0/")
(set-info :category "industrial")
(set-info :status unknown)

(declare-fun sigmaStar_0 () String)
(declare-fun sigmaStar_3 () String)
(declare-fun literal_7 () String)
(declare-fun x_6 () String)
(declare-fun x_4 () String)
(declare-fun literal_5 () String)
(declare-fun x_8 () String)
(declare-fun literal_9 () String)
(declare-fun x_11 () String)
(declare-fun literal_10 () String)
(declare-fun x_12 () String)
(declare-fun literal_13 () String)
(declare-fun x_14 () String)
(declare-fun sigmaStar_15 () String)
(assert (= x_4 (str.replace sigmaStar_0 "\u{2f}\u{5b}\u{5e}\u{30}\u{2d}\u{39}\u{61}\u{2d}\u{7a}\u{5c}\u{2d}\u{5f}\u{2c}\u{5d}\u{2b}\u{2f}\u{69}" "")))
(assert (= literal_7 "\u{74}\u{68}\u{65}\u{6d}\u{65}\u{73}\u{2f}"))
(assert (= literal_5 ""))
(assert (or (= x_6 x_4) (= x_6 literal_5)))
(assert (= x_8 (str.++ literal_7 x_6)))
(assert (= literal_9 "\u{2f}\u{65}\u{64}\u{69}\u{74}\u{6f}\u{72}\u{5f}\u{74}\u{65}\u{6d}\u{70}\u{6c}\u{61}\u{74}\u{65}"))
(assert (= x_11 (str.++ x_8 literal_9)))
(assert (= literal_10 ""))
(assert (= x_12 (str.++ x_11 literal_10)))
(assert (= literal_13 "\u{2e}\u{6a}\u{73}"))
(assert (= x_14 (str.++ x_12 literal_13)))
(assert (str.in_re sigmaStar_15 (re.++ (re.* re.allchar) (re.++ (str.to_re "\u{2f}\u{65}\u{76}\u{69}\u{6c}") (re.* re.allchar)))))
(check-sat)
(exit)
